(set-logic QF_NRA)
(declare-fun omega3 () Real)
(assert (>= omega3 0.5000000000000001))
(assert (<= omega3 1.0))
(declare-fun omega1 () Real)
(assert (>= omega1 0.5000000000000001))
(assert (<= omega1 1.0))
(declare-fun omega2 () Real)
(assert (>= omega2 0.0))
(assert (<= omega2 0.5))
(declare-fun omega0 () Real)
(assert (>= omega0 0.0))
(assert (<= omega0 0.5))
(assert (or (or (or (or (and (and (and (and (>= (+ (* (- 2 -2) omega0) -2) 0.99) (<= (+ (* (- 2 -2) omega0) -2) 1.01)) (and (>= (+ (* (- 2 -2) omega1) -2) -0.01) (<= (+ (* (- 2 -2) omega1) -2) 0.01))) (and (>= (+ (* (- 2 -2) omega2) -2) -0.01) (<= (+ (* (- 2 -2) omega2) -2) 0.01))) (and (>= (+ (* (- 2 -2) omega3) -2) -0.01) (<= (+ (* (- 2 -2) omega3) -2) 0.01))) (and (and (and (and (>= (+ (* (- 2 -2) omega0) -2) -0.26) (<= (+ (* (- 2 -2) omega0) -2) -0.24)) (and (>= (+ (* (- 2 -2) omega1) -2) 0.9582458365518542) (<= (+ (* (- 2 -2) omega1) -2) 0.9782458365518543))) (and (>= (+ (* (- 2 -2) omega2) -2) -0.01) (<= (+ (* (- 2 -2) omega2) -2) 0.01))) (and (>= (+ (* (- 2 -2) omega3) -2) -0.01) (<= (+ (* (- 2 -2) omega3) -2) 0.01)))) (and (and (and (and (>= (+ (* (- 2 -2) omega0) -2) -0.26) (<= (+ (* (- 2 -2) omega0) -2) -0.24)) (and (>= (+ (* (- 2 -2) omega1) -2) -0.3327486121839514) (<= (+ (* (- 2 -2) omega1) -2) -0.3127486121839514))) (and (>= (+ (* (- 2 -2) omega2) -2) 0.9028709291752769) (<= (+ (* (- 2 -2) omega2) -2) 0.9228709291752769))) (and (>= (+ (* (- 2 -2) omega3) -2) -0.01) (<= (+ (* (- 2 -2) omega3) -2) 0.01)))) (and (and (and (and (>= (+ (* (- 2 -2) omega0) -2) -0.26) (<= (+ (* (- 2 -2) omega0) -2) -0.24)) (and (>= (+ (* (- 2 -2) omega1) -2) -0.3327486121839514) (<= (+ (* (- 2 -2) omega1) -2) -0.3127486121839514))) (and (>= (+ (* (- 2 -2) omega2) -2) -0.46643546458763835) (<= (+ (* (- 2 -2) omega2) -2) -0.44643546458763833))) (and (>= (+ (* (- 2 -2) omega3) -2) 0.7805694150420949) (<= (+ (* (- 2 -2) omega3) -2) 0.8005694150420949)))) (and (and (and (and (>= (+ (* (- 2 -2) omega0) -2) -0.26) (<= (+ (* (- 2 -2) omega0) -2) -0.24)) (and (>= (+ (* (- 2 -2) omega1) -2) -0.3327486121839514) (<= (+ (* (- 2 -2) omega1) -2) -0.3127486121839514))) (and (>= (+ (* (- 2 -2) omega2) -2) -0.46643546458763835) (<= (+ (* (- 2 -2) omega2) -2) -0.44643546458763833))) (and (>= (+ (* (- 2 -2) omega3) -2) -0.8005694150420947) (<= (+ (* (- 2 -2) omega3) -2) -0.7805694150420946)))))
(check-sat)
(exit)